SYSTEM = NFMO_o2
PREC = ACCURATE
LASPH = .TRUE.
LWAVE = T
LCHARG = T
METAGGA = R2SCAN

ISPIN = 2
MAGMOM = 8*0.0 18*4.2 18*3.2 72*0.0
LORBIT = 11
LORBMOM = True

ENCUT = 480
SIGMA = 0.05
ISMEAR = 0
NELMIN = 2
LREAL = AUTO

NSW = 15
IBRION = 2
ISIF = 2
EDIFF = 1.0E-06
EDIFFG = -0.01

NEDOS = 5001
EMIN = -10
EMAX = 10

ADDGRID = .TRUE.

LPLANE = .TRUE.
KPAR = 2
NPAR = 8
LSCALU = .FALSE.
NSIM = 4

NGXF = 128
NGYF = 224
NGZF = 168

