NFMO O2 phase relaxed with r2SCAN
   1.00000000000000     
     8.5751603881662994   -0.0012655068297373    0.0189657052690753
    -0.0017992580055494   14.9084326094587496    0.1368017742940049
    -0.0148657315609190    0.0662447754286348   11.2091639073752667
   Na   Fe   Mn   O 
     8    18    18    72
Direct
     0.8284888336817010    0.0638053486252387    0.3752086341298948
     0.0036528166784481    0.5661181260202995    0.3770768978710094
     0.3327371549469403    0.2188917033651675    0.3762419689708044
     0.5039595414642751    0.7009093365219964    0.3817835594402492
     0.3436618703521528    0.7822295823598451    0.8787752077110933
     0.5072945622396272    0.2806810387529310    0.8750094733271107
     0.8193995680997525    0.9392994370958223    0.8831743786300548
     0.9935823337093220    0.4392813792337485    0.8728176133846984
     0.6634990167026192    0.5526699879829057    0.1224103389135128
     0.1614082768193064    0.0551559852671466    0.1081708552192593
     0.5021166245480769    0.7199670714409542    0.1227748621899390
     0.9973049281438984    0.8884826145730437    0.1345928032156222
     0.3346447847606021    0.5517372108715978    0.1188848292525884
     0.6600517882328177    0.2253068867411421    0.1259211158825765
     0.8258399034675854    0.0577159362381558    0.1223614872083841
     0.6651789842710980    0.8881324074344601    0.1532181529871438
     0.4982391363786541    0.3866628883972678    0.1272648181093327
     0.1658104211206311    0.2781816961354591    0.6266643254247615
     0.0027934479753586    0.1124242564081373    0.6260826314486722
     0.6697031413227992    0.4453678946072415    0.6224682083829578
     0.1640859167374642    0.9453893796112839    0.6134695541578706
     0.4987559369118401    0.9459083274898427    0.6227268918741077
     0.3376413408501087    0.4452305607348855    0.6222078875229879
     0.8354294272535656    0.2805042501992738    0.6058041003174883
     0.5010078195994973    0.2796881935190378    0.6198106284761691
     0.5029173185527254    0.6080449614274137    0.6542171944260818
     0.0010366926653484    0.5539101470638798    0.1163305666893190
     0.3343967923370292    0.8871713279994083    0.1271099787066518
     0.9923858902802719    0.2224261379858282    0.1209199630369267
     0.1705743556606932    0.7198677069870861    0.1241095064198546
     0.4967808829030622    0.0567516908007060    0.1237472260129633
     0.8355409013762032    0.7203396880681784    0.1272259539346927
     0.8292629756439841    0.3877040211196212    0.1254509785079321
     0.3287033142355896    0.2221530591900727    0.1168998957793142
     0.1673650557414725    0.3881960044206073    0.1240169485068552
     0.9996729123992834    0.7781374420294123    0.6254378054246519
     0.3348664937637353    0.7767786752574186    0.6177625777532209
     0.8346170529747532    0.6111589965192694    0.6305413616609689
     0.3351292046056612    0.1143912900080387    0.6312796208460406
     0.8328890579819417    0.9452541909460126    0.6200288324939480
     0.6669473703618922    0.7770323318856500    0.6261644254416754
     0.6645878145579954    0.1130778432883538    0.6296430848030223
     0.0027856138837489    0.4453359908266057    0.6171516307499318
     0.1684257025172543    0.6118217124819634    0.6295416245702504
     0.9811308102788313    0.9959459224547250    0.0340988523076223
     0.4857518290994663    0.4969085600159675    0.0349903218086621
     0.8250385146881165    0.1705245002038626    0.0377577154061027
     0.3354227086708078    0.6668458017107581    0.0352096035445395
     0.6644234478325214    0.3347481637758127    0.0359474940825465
     0.1800277455589524    0.8271800712003924    0.0362136999735227
     0.3417840276814846    0.9951926023633035    0.0361767322011661
     0.8417836122223852    0.4962607361987865    0.0318451844903794
     0.1596601680425087    0.1741465394115261    0.0312585892532748
     0.6669145102721235    0.6735287209138832    0.0382930387867594
     0.9977664693931925    0.3353068595245857    0.0371421532332915
     0.4976542105989685    0.8320481259983638    0.0435302629595986
     0.6667660650041416    0.0045623440297346    0.0407440320581303
     0.1642469032836948    0.4964827263830730    0.0325807833196364
     0.4970068183323730    0.1700005201011171    0.0340377327423606
     0.0023675200750636    0.6676569795550261    0.0367784783814920
     0.3314095321058482    0.3342816167354796    0.0348690346857347
     0.8388766833262808    0.8343567408459142    0.0484340379184778
     0.9850887748709287    0.1131843735600274    0.2075366522675805
     0.4883611615356191    0.6110966598370610    0.2092664767760149
     0.8300713891274941    0.2776106047138868    0.2094651830116648
     0.3375041809826235    0.7719860483134554    0.2128583826126301
     0.6663224244616048    0.4372888892715339    0.2110755551069840
     0.1624939519570289    0.9376097823302132    0.2098169615898783
     0.3337259140934009    0.1148752432778238    0.2070297354857944
     0.8461055537927580    0.6090012394100734    0.2103690955373902
     0.1649468450799484    0.2758652642089613    0.2084926514965346
     0.6670527767578961    0.7657413444440754    0.2208287855215249
     0.0000168159088145    0.4446135844597426    0.2090577621256162
     0.4852551346053021    0.9499271581461650    0.2180964352030985
     0.6615728093335992    0.1133526253754049    0.2102587608282464
     0.1682691926271380    0.6054900496054932    0.2059829795058805
     0.4902915440256673    0.2745748618802691    0.2116689047749201
     0.0068103863946656    0.7715296872675501    0.2127622880499540
     0.3283959694175020    0.4421808486782764    0.2095367149106146
     0.8329106001589667    0.9557120594445305    0.2250203556214472
     0.9879482493851576    0.0046737525263611    0.5319141540071433
     0.5160369133257942    0.5018250133078384    0.5413976496128668
     0.8351919386570479    0.1596943488853744    0.5363291322973877
     0.3299726450078288    0.6674824311652192    0.5407885097800915
     0.6559104104824223    0.3385411441106554    0.5321103817373825
     0.1645308104050062    0.8284948272598168    0.5347063196939452
     0.3463425954542129    0.0072213768586553    0.5396642446582766
     0.8380745245680510    0.5061794413189959    0.5351581225578250
     0.1690884020223306    0.1684043453837907    0.5389305782742129
     0.6731552507649806    0.6694733226726699    0.5447356818327095
     0.0169745462508510    0.3385047396989647    0.5295506942103884
     0.5039780194536235    0.8237657072549952    0.5296621535646229
     0.6642083304496753    0.0037982708798451    0.5382172438478346
     0.1614608148536366    0.5084208197934769    0.5336683505279622
     0.4997294225816061    0.1670372574281653    0.5374639179992994
     0.0003233517246778    0.6681975589569428    0.5418802237279040
     0.3345209529752006    0.3261143070379140    0.5352581545521010
     0.8326740816043123    0.8339871800388127    0.5386389065711382
     0.1626669671051038    0.0608910776617630    0.7105471308932125
     0.6849646871926234    0.5497553453493320    0.7204501192072128
     0.0093228456997012    0.2210259807948402    0.7081936477131149
     0.4986969505699688    0.7305471442701953    0.7179870966394404
     0.8378355067842643    0.3923992118408042    0.7052201526230937
     0.3430794437896574    0.8860529437151610    0.7062011624137315
     0.5009804510221100    0.0636929132474800    0.7184586670629577
     0.0017311640129154    0.5526782228678031    0.7128370137930244
     0.3351130596378964    0.2237860743402205    0.7133102981011410
     0.8347875709818475    0.7229651175137962    0.7140725808184850
     0.1570832836968529    0.3866777564740611    0.7103369601522587
     0.6650676403666850    0.8903694480229534    0.7089639777995593
     0.8320526567548010    0.0533200475295582    0.7118792723464595
     0.3186519850955212    0.5553167566342972    0.7222595937811092
     0.6584402436927749    0.2227233439484524    0.7085776229585610
     0.1688520021522809    0.7247741319882960    0.7132082622387488
     0.5132919814024535    0.3836483454043232    0.7111572228256866
     0.9893302584836219    0.8880244171718220    0.7110419816874386
