SYSTEM = NFMO_p2
PREC = ACCURATE
LASPH = .TRUE.
LWAVE = T
LCHARG = T
METAGGA = R2SCAN

ISPIN = 2
MAGMOM = 16*0.1 12*6.0 12*6.0 48*0.1
LORBIT = 11
LORBMOM = True

ENCUT = 480
SIGMA = 0.05
ISMEAR = 0
NELMIN = 2
LREAL = AUTO

NSW = 41
IBRION = 2
ISIF = 3
EDIFF = 1.0E-06
EDIFFG = -0.01

NEDOS = 5001
EMIN = -8
EMAX = 12

ADDGRID = .TRUE.

LPLANE = .TRUE.
KPAR = 2
NPAR = 8
LSCALU = .FALSE.
NSIM = 4

NGXF = 160
NGYF = 160
NGZF = 168
