NFMO O2 phase relaxed with r2SCAN
   1.00000000000000     
    10.0678279533090418    0.0314068672388330   -0.0003806908902161
     4.9890216834214334    8.7755010175591437    0.0355657702369829
     0.0300226502561937   -0.0634699998175061   11.1114379149800104
   Na   Fe   Mn   O 
    16    12    12    48
Direct
     0.3324756711207105    0.9982961084788484    0.5676901480447432
     0.9955365783853115    0.6721200331864712    0.5635515395923933
     0.3349779931694987    0.0025935756481095    0.0627990240093558
     0.9873053404221376    0.6774432946596016    0.0662006840468048
     0.6609400083672349    0.9816361371464013    0.5650498404807450
     0.8521216527910606    0.1515521772095281    0.5652201663087199
     0.0261303484207769    0.3352995427790503    0.5648777326245619
     0.4766847980414787    0.3416749025358795    0.5653133058414327
     0.6683364063798966    0.5315920378472637    0.5635619048378040
     0.3086987065597178    0.6917945595664534    0.5653204055994121
     0.0284458006011164    0.9752369877544189    0.0647112381837711
     0.6643842031573318    0.1431102689658157    0.0652458038748553
     0.8511738437975769    0.3315695614378337    0.0646127119042915
     0.2997041202000542    0.3391057918461214    0.0633237582926413
     0.4729501844460154    0.5200846562858623    0.0654984996043445
     0.6631982223756832    0.6869626642379891    0.0644509918706363
     0.0066008069322131    0.6631030800081111    0.3148563595158911
     0.1616800558918007    0.3433057697564390    0.3153660316260436
     0.3296186835872261    0.5026427821716258    0.3160720405513504
     0.6588277158442355    0.3430336748353985    0.3150057168740661
     0.1630365132108677    0.8285235664799809    0.3153094881424656
     0.8361584887419372    0.5029276093842251    0.3141334953874048
     0.3343687890529034    0.5002483764023656    0.8159103852348105
     0.6570484215054083    0.3429266225921721    0.8154468644177262
     0.3246587853013958    0.0095350973887825    0.8155378595876979
     0.1701334436858069    0.8318248200280407    0.8123720938204795
     0.1674128352282995    0.3312184091468771    0.8151843920170427
     0.8360852323323884    0.4972515091131567    0.8123695980211600
     0.3285726042423222    0.0034224875663920    0.3151374406372290
     0.8302264820773146    0.0026244201186517    0.3133807639133207
     0.4968515576322329    0.6721527892883586    0.3157001838965733
     0.9975329423100606    0.1676883313952560    0.3156935576268003
     0.4969309477110414    0.1682065975967693    0.3130369624830476
     0.6648835967095533    0.8361335889975583    0.3134437637015149
     0.5002286370353990    0.1660152880180341    0.8196843748515742
     0.8331529403248297    0.0002233684715110    0.8160517221714222
     0.6656667892038994    0.8344650205742239    0.8161072298897540
     0.0005444984758530    0.6663152893960035    0.8149684480307064
     0.4989089735327376    0.6720058612498544    0.8132772571320602
     0.9968335226712111    0.1673732705382265    0.8130407251924093
     0.9852014523349996    0.0094426677863295    0.4032492141726100
     0.4955101951316045    0.0027299179544054    0.4041244358558177
     0.1663386812890067    0.1547303921943182    0.4079074984499367
     0.6615725670669496    0.1620494405886437    0.4081672945112387
     0.3456737146766433    0.3216718683004896    0.4064371111337030
     0.8429057037572324    0.3224518734847807    0.4141966138051488
     0.9970965610279546    0.5022766260224764    0.4165321423899871
     0.5001625444599649    0.5201131228233634    0.4169646101867555
     0.1626220355586508    0.6717610687240674    0.4196602398554061
     0.6566520505281007    0.6820273332315191    0.4030281545155648
     0.3392752144909367    0.8395416494663082    0.4068263040002254
     0.8179317273674406    0.8475602636330968    0.4056551163793063
     0.9866866141525383    0.0080804565738229    0.7252185659731560
     0.5077585119360406    0.0004162473491706    0.7257668114845460
     0.1523796584572950    0.1654493724643075    0.7148576625781931
     0.6672160353082874    0.1586397432689859    0.7225576735793163
     0.3487290446944041    0.3196526509339057    0.7255815710149862
     0.8405341740875989    0.3265811370581187    0.7154708073267475
     0.9963390930394667    0.5150058716093023    0.7194124572603875
     0.5006066208173497    0.5156267777568472    0.7116597498094964
     0.1524238305826058    0.6713708546215802    0.7201155575096925
     0.6594416738887577    0.6796713697432405    0.7250082200535666
     0.3418767082725990    0.8269545386851411    0.7187618984993678
     0.8293019918300367    0.8380644124168052    0.7252403283650846
     0.1559650663141174    0.0104242490750690    0.9086879031372805
     0.6692424461531107    0.9978342056453788    0.9043814517532233
     0.3470300515254191    0.1642738031895831    0.9146028004417766
     0.8401433382799209    0.1555890072210048    0.9108015962736182
     0.5010218957069560    0.3198489213257107    0.9178560736209976
     0.9962334484139530    0.3236353089160552    0.9063073271910932
     0.1489273127579043    0.5172627855958717    0.9121863472527282
     0.6568861472439976    0.5106589679189703    0.9126761891177196
     0.3432478289876227    0.6694774396997309    0.9062597874660888
     0.8294632779311333    0.6780730530370451    0.9061849693651925
     0.5097187614099536    0.8272162739259309    0.9075183039557320
     0.9887579837267918    0.8371511283213033    0.9064318675377502
     0.1681320345036858    0.0098552196548575    0.2232884329187520
     0.6643438546703486    0.0017666137776101    0.2264037245814351
     0.3410995443995727    0.1571469602884353    0.2234119507939883
     0.8412829186618040    0.1587065729255039    0.2190214899179685
     0.5000935455533667    0.3182312942965723    0.2134465543337052
     0.9960476034127749    0.3242197481025302    0.2240200621687765
     0.1602961103682373    0.5033877864051458    0.2108650487067283
     0.6507804804003670    0.5140035111572023    0.2163632802676118
     0.3415849479190888    0.6701205108488243    0.2241181388455172
     0.8164754237255269    0.6838199762586633    0.2188600844927804
     0.4958721744244250    0.8398397519167304    0.2243436490348873
     0.9849290482990763    0.8482124991324309    0.2190226192664965
